1
raw_data/rcpsp/CV.xlsx cv1
Time limit set to 60 seconds
Running CP solver
/home/omastto1/General-Optimization-Solver/src/solvers/rcpsp.py:31(stream:49:6): Warning: Cumulative expression 'pulse': height is zero, expression is zero everywhere.
                                                                                            VarCumulAtom_100 = pulse("0", 0)
/home/omastto1/General-Optimization-Solver/src/solvers/rcpsp.py:31(stream:49:476): Warning: Cumulative expression 'pulse': height is zero, expression is zero everywhere.
                                                                                              VarCumulAtom_130 = pulse("30", 0)
 ! --------------------------------------------------- CP Optimizer 20.1.0.0 --
 ! Minimization problem - 32 variables, 134 constraints
 ! TimeLimit            = 60
 ! Workers              = 14
 ! LogVerbosity         = Terse
 ! Initial process time : 0.00s (0.00s extraction + 0.00s propagation)
 !  . Log search space  : 173.5 (before), 173.5 (after)
 !  . Memory usage      : 583.7 kB (before), 583.7 kB (after)
 ! Using parallel search with 14 workers.
 ! ----------------------------------------------------------------------------
 !          Best Branches  Non-fixed    W       Branch decision
                        0         32                 -
 + New bound is 22
 ! Using iterative diving.
 ! Using temporal relaxation.
 *            56       65  1.00s        1      (gap is 60.71%)
 *            54      129  1.00s        1      (gap is 59.26%)
              54     3206          2    1            -
 + New bound is 47 (gap is 12.96%)
 ! Using failure-directed search.
 *            53     4400  1.00s        1      (gap is 11.32%)
 *            52     5667  1.00s        2      (gap is 9.62%)
 *            51     9717  1.00s        2      (gap is 7.84%)
 *            50    12051  1.00s        5      (gap is 6.00%)
              50    30471         20    1   F    49 >= cost
 + New bound is 48 (gap is 4.00%)
 *            49     245k  19.96s       8      (gap is 2.04%)
 ! ----------------------------------------------------------------------------
 ! Search terminated by limit, 7 solutions found.
 ! Best objective         : 49 (gap is 2.04%)
 ! Best bound             : 48
 ! ----------------------------------------------------------------------------
 ! Number of branches     : 11405902
 ! Number of fails        : 3225979
 ! Total memory usage     : 11.1 MB (11.0 MB CP Optimizer + 0.1 MB Concert)
 ! Time spent in solve    : 60.08s (60.08s engine + 0.00s extraction)
 ! Search speed (br. / s) : 189876.8
 ! ----------------------------------------------------------------------------
(48,)
(0.0204082,)
(49,)
Objective value: 49
Solution is 2.1 % worse than the lower bound.
Feasible solution found
